(set-info :status unknown)
(declare-fun %Y () (_ BitVec 8))
(declare-fun %X () (_ BitVec 8))
(assert
 (let (($x5363 (and (distinct (bvurem ((_ zero_extend 1) %X) ((_ zero_extend 1) %Y)) ((_ zero_extend 1) (bvurem %X %Y))) true)))
 (and (and (distinct ((_ zero_extend 1) %Y) (_ bv0 9)) true) $x5363)))
(check-sat)
